NAME : block_35.289902.tour
COMMENT : Length = 289902
COMMENT : Found by LKH-3 [Keld Helsgaun] Mon Feb  2 23:13:44 2026
TYPE : TOUR
DIMENSION : 81
TOUR_SECTION
41
28
27
15
7
8
16
17
29
42
53
62
71
63
54
43
30
18
19
31
44
55
64
72
78
79
73
65
56
45
32
46
57
66
74
75
67
58
2
81
1
47
59
69
68
76
80
77
70
60
61
48
33
20
21
9
10
22
34
49
50
35
36
23
11
3
4
12
24
37
38
25
13
5
6
14
26
39
40
51
52
-1
EOF
